
n_res = 6;
rcap = [32, 33, 27, 31, 1384, 1402];
rtype = [1, 1, 1, 1, 2, 2];
n_tasks = 100;
modes =  [{1, 2, 3}, {4, 5, 6}, {7, 8, 9}, {10, 11, 12}, {13, 14, 15}, {16, 17, 18}, {19, 20, 21}, {22, 23, 24}, {25, 26, 27}, {28, 29, 30}, {31, 32, 33}, {34, 35, 36}, {37, 38, 39}, {40, 41, 42}, {43, 44, 45}, {46, 47, 48}, {49, 50, 51}, {52, 53, 54}, {55, 56, 57}, {58, 59, 60}, {61, 62, 63}, {64, 65, 66}, {67, 68, 69}, {70, 71, 72}, {73, 74, 75}, {76, 77, 78}, {79, 80, 81}, {82, 83, 84}, {85, 86, 87}, {88, 89, 90}, {91, 92, 93}, {94, 95, 96}, {97, 98, 99}, {100, 101, 102}, {103, 104, 105}, {106, 107, 108}, {109, 110, 111}, {112, 113, 114}, {115, 116, 117}, {118, 119, 120}, {121, 122, 123}, {124, 125, 126}, {127, 128, 129}, {130, 131, 132}, {133, 134, 135}, {136, 137, 138}, {139, 140, 141}, {142, 143, 144}, {145, 146, 147}, {148, 149, 150}, {151, 152, 153}, {154, 155, 156}, {157, 158, 159}, {160, 161, 162}, {163, 164, 165}, {166, 167, 168}, {169, 170, 171}, {172, 173, 174}, {175, 176, 177}, {178, 179, 180}, {181, 182, 183}, {184, 185, 186}, {187, 188, 189}, {190, 191, 192}, {193, 194, 195}, {196, 197, 198}, {199, 200, 201}, {202, 203, 204}, {205, 206, 207}, {208, 209, 210}, {211, 212, 213}, {214, 215, 216}, {217, 218, 219}, {220, 221, 222}, {223, 224, 225}, {226, 227, 228}, {229, 230, 231}, {232, 233, 234}, {235, 236, 237}, {238, 239, 240}, {241, 242, 243}, {244, 245, 246}, {247, 248, 249}, {250, 251, 252}, {253, 254, 255}, {256, 257, 258}, {259, 260, 261}, {262, 263, 264}, {265, 266, 267}, {268, 269, 270}, {271, 272, 273}, {274, 275, 276}, {277, 278, 279}, {280, 281, 282}, {283, 284, 285}, {286, 287, 288}, {289, 290, 291}, {292, 293, 294}, {295, 296, 297}, {298, 299, 300}];
succ =  [{100, 96, 60, 55, 53, 47, 36, 33, 21, 19}, {100, 89, 68, 67, 66, 58, 55, 54, 53, 52, 50, 49, 46, 42, 40, 36, 32}, {99, 96, 88, 70, 68, 54, 49, 48, 33, 10}, {92, 71, 68, 66, 63, 52, 49, 47, 42, 39, 11}, {99, 96, 69, 68, 61, 60, 58, 56, 54, 53, 47, 42, 19}, {97, 95, 70, 67, 62, 48, 46, 42, 40, 21}, {99, 97, 96, 95, 91, 90, 89, 88, 84, 79, 69, 68, 67, 66, 61, 58, 56, 53, 46, 40}, {99, 96, 95, 89, 68, 60, 58, 53, 49, 47, 44, 40, 33}, {96, 95, 94, 90, 83, 69, 68, 67, 66, 65, 62, 61, 55, 53, 49, 47, 46}, {97, 95, 92, 91, 90, 89, 66, 61, 60, 58, 56, 53, 52, 50, 44}, {97, 96, 95, 93, 87, 80, 77, 69, 67, 64, 62, 61, 60, 58, 56, 37}, {96, 95, 91, 90, 89, 88, 84, 81, 79, 67, 63, 61, 60, 58, 53, 40}, {100, 99, 95, 93, 86, 85, 69, 67, 58, 46, 45, 39, 30}, {100, 96, 92, 89, 86, 85, 69, 68, 65, 63, 58, 54, 47, 45, 41}, {99, 98, 95, 90, 89, 88, 87, 82, 68, 65, 63, 61, 60, 53, 52, 45}, {97, 96, 92, 89, 86, 85, 83, 81, 80, 78, 69, 68, 66, 65, 60, 58, 48, 47}, {99, 97, 92, 89, 86, 84, 82, 80, 78, 69, 67, 66, 65, 62, 60, 56, 47}, {97, 95, 93, 92, 89, 85, 81, 80, 78, 74, 68, 67, 63, 60, 48, 47}, {95, 93, 90, 89, 85, 82, 81, 79, 78, 73, 66, 52, 44, 40}, {99, 95, 94, 93, 92, 89, 88, 86, 85, 80, 78, 68, 63, 62, 60, 58, 48}, {99, 92, 91, 90, 89, 88, 86, 84, 82, 80, 78, 69, 66, 65, 61, 56, 54}, {95, 94, 92, 89, 84, 83, 81, 78, 68, 65, 62, 61, 60, 58, 47}, {95, 89, 88, 85, 84, 81, 78, 73, 67, 66, 63, 60, 40}, {89, 88, 87, 85, 81, 80, 79, 78, 66, 65, 60, 58, 48}, {96, 85, 84, 81, 67, 60, 52, 39}, {96, 93, 92, 86, 85, 84, 81, 80, 79, 78, 73, 68, 67, 66, 62, 58}, {89, 81, 68, 66, 52, 39}, {96, 92, 91, 89, 87, 86, 84, 82, 78, 76, 75, 73, 69, 45}, {89, 88, 84, 66, 65, 63, 60, 54, 42}, {84, 83, 82, 81, 80, 78, 77, 74, 68, 65, 60, 47}, {100, 96, 95, 92, 84, 80, 78, 73, 60, 58, 56}, {96, 90, 86, 83, 82, 81, 76, 74, 62, 60, 47}, {94, 93, 92, 91, 86, 85, 76, 66, 42}, {99, 96, 89, 82, 81, 80, 79, 78, 77, 72, 69, 68, 65}, {92, 85, 84, 81, 79, 77, 76, 73, 60, 52}, {95, 91, 88, 87, 85, 84, 82, 81, 74, 73, 72, 65}, {94, 90, 89, 88, 85, 83, 81, 79, 74, 73, 72, 65}, {93, 85, 78, 67, 60, 52}, {90, 87, 83, 82, 79, 78, 76, 73, 65}, {98, 94, 92, 87, 77, 74, 72, 65}, {90, 83, 82, 79, 78, 76, 74, 66}, {87, 83, 80, 79, 78, 75, 73, 72}, {91, 88, 81, 79, 77, 76, 74, 72}, {86, 84, 83, 80, 67, 65}, {97, 81, 80, 79, 77, 74, 72}, {81, 80, 77, 74, 60}, {88, 87, 79, 75, 73, 72}, {91, 90, 84, 82, 77, 73}, {87, 84, 78, 77, 73, 72}, {98, 84, 79, 75, 73, 72}, {88, 77, 76, 74, 73, 72}, {94, 86, 80, 74, 72}, {93, 86, 80, 78, 77}, {93, 77, 74, 73, 72}, {97, 86, 82, 79, 73}, {85, 83, 81, 74}, {88, 86, 84, 73}, {82, 76, 74}, {76, 73, 72}, {75, 72}, {85, 73}, {91, 72}, {83, 76}, {86, 78}, {75}, {77}, {76}, {76}, {74}, {72}, {72}, {}, {}, {}, {}, {}, {}, {}, {}, {}, {}, {}, {}, {}, {}, {}, {}, {}, {}, {}, {}, {}, {}, {}, {}, {}, {}, {}, {}, {}];
n_opt = 300;
dur = [20, 21, 30, 4, 8, 20, 5, 6, 28, 11, 29, 30, 1, 12, 23, 2, 12, 19, 2, 9, 10, 5, 18, 24, 14, 15, 26, 1, 7, 11, 5, 6, 18, 3, 10, 13, 18, 19, 20, 2, 9, 17, 7, 23, 27, 6, 12, 17, 6, 13, 14, 2, 14, 17, 16, 23, 30, 2, 4, 21, 17, 18, 27, 14, 20, 28, 1, 9, 17, 9, 19, 21, 1, 18, 23, 2, 12, 16, 1, 7, 8, 15, 16, 21, 13, 16, 22, 1, 13, 27, 11, 12, 19, 4, 12, 27, 9, 16, 26, 17, 18, 19, 11, 27, 28, 2, 16, 29, 9, 12, 17, 14, 19, 21, 1, 10, 21, 2, 14, 27, 8, 13, 14, 10, 11, 15, 21, 24, 26, 2, 10, 18, 20, 24, 27, 2, 8, 19, 4, 13, 28, 5, 6, 7, 17, 19, 30, 22, 23, 24, 2, 23, 28, 16, 27, 30, 2, 7, 8, 22, 23, 30, 10, 24, 25, 6, 17, 30, 11, 12, 20, 5, 8, 30, 6, 13, 22, 4, 27, 29, 26, 27, 29, 2, 23, 26, 1, 29, 30, 10, 16, 20, 1, 3, 8, 3, 4, 20, 17, 20, 24, 4, 6, 8, 22, 24, 27, 6, 22, 23, 2, 27, 29, 7, 11, 16, 4, 23, 28, 19, 24, 30, 1, 25, 27, 1, 5, 9, 3, 11, 27, 10, 16, 23, 14, 19, 20, 2, 20, 22, 4, 21, 27, 3, 12, 26, 1, 16, 30, 1, 21, 22, 11, 23, 25, 18, 21, 28, 12, 20, 21, 4, 9, 25, 1, 2, 17, 4, 16, 17, 1, 2, 19, 3, 27, 28, 4, 7, 16, 2, 5, 22, 1, 19, 21, 5, 12, 15, 6, 8, 15, 6, 16, 18, 6, 22, 29, 9, 19, 24];
rreq = [|1, 1, 1, 4, 4, 3, 3, 2, 1, 3, 3, 3, 3, 3, 3, 3, 2, 1, 1, 1, 1, 5, 3, 3, 4, 4, 3, 2, 1, 1, 2, 2, 2, 3, 2, 2, 4, 4, 4, 2, 2, 2, 3, 3, 3, 3, 3, 2, 3, 3, 3, 4, 3, 3, 5, 3, 3, 5, 3, 3, 4, 3, 3, 4, 4, 3, 4, 2, 1, 3, 3, 3, 5, 4, 4, 5, 5, 5, 4, 3, 2, 3, 3, 3, 5, 3, 3, 3, 3, 1, 4, 4, 3, 4, 2, 2, 5, 5, 5, 2, 2, 2, 4, 3, 3, 4, 2, 1, 4, 3, 3, 4, 3, 2, 3, 3, 3, 2, 2, 2, 4, 4, 4, 3, 2, 1, 2, 1, 1, 5, 3, 3, 3, 3, 2, 5, 3, 3, 4, 4, 4, 5, 5, 5, 3, 2, 1, 5, 3, 3, 4, 4, 4, 5, 3, 1, 5, 4, 3, 4, 3, 2, 4, 4, 4, 2, 1, 1, 3, 2, 1, 2, 1, 1, 4, 4, 4, 5, 5, 5, 5, 4, 4, 1, 1, 1, 2, 2, 1, 4, 2, 1, 2, 2, 2, 5, 5, 5, 2, 1, 1, 4, 4, 4, 3, 1, 1, 3, 3, 3, 3, 3, 3, 4, 4, 4, 2, 2, 2, 2, 1, 1, 5, 4, 3, 3, 3, 3, 1, 1, 1, 4, 3, 2, 3, 3, 3, 2, 2, 2, 2, 1, 1, 4, 2, 1, 4, 2, 1, 4, 2, 1, 3, 2, 2, 3, 2, 2, 4, 4, 4, 1, 1, 1, 4, 4, 4, 1, 1, 1, 4, 3, 2, 1, 1, 1, 3, 3, 3, 5, 4, 2, 3, 3, 3, 5, 3, 1, 4, 4, 4, 4, 3, 3, 5, 5, 5, 5, 5, 5
 |5, 5, 5, 3, 2, 1, 5, 4, 3, 3, 3, 2, 5, 3, 2, 4, 4, 4, 4, 3, 2, 4, 3, 3, 4, 3, 2, 4, 3, 3, 4, 3, 2, 5, 4, 3, 5, 3, 3, 4, 3, 2, 5, 4, 4, 5, 3, 2, 4, 3, 1, 4, 3, 3, 4, 2, 2, 2, 2, 2, 4, 3, 3, 4, 4, 2, 5, 5, 5, 4, 4, 4, 3, 2, 2, 4, 4, 3, 3, 3, 3, 5, 3, 1, 1, 1, 1, 2, 1, 1, 4, 4, 3, 1, 1, 1, 4, 3, 3, 2, 1, 1, 3, 3, 3, 2, 2, 2, 2, 2, 2, 1, 1, 1, 3, 1, 1, 3, 3, 2, 1, 1, 1, 2, 2, 2, 2, 1, 1, 3, 3, 1, 3, 2, 2, 4, 2, 2, 3, 3, 2, 3, 3, 3, 1, 1, 1, 5, 3, 2, 4, 2, 2, 1, 1, 1, 3, 2, 2, 4, 3, 2, 2, 2, 2, 4, 2, 1, 1, 1, 1, 3, 2, 2, 2, 2, 2, 5, 5, 5, 2, 2, 2, 4, 4, 4, 5, 4, 3, 4, 4, 3, 3, 2, 1, 5, 5, 5, 3, 2, 2, 4, 3, 2, 2, 1, 1, 5, 4, 2, 1, 1, 1, 1, 1, 1, 4, 2, 2, 2, 1, 1, 4, 2, 2, 2, 2, 2, 4, 3, 3, 5, 3, 3, 1, 1, 1, 3, 3, 3, 3, 2, 2, 4, 2, 2, 2, 2, 1, 2, 2, 2, 1, 1, 1, 5, 4, 4, 2, 2, 1, 2, 1, 1, 4, 2, 1, 4, 4, 4, 3, 3, 3, 1, 1, 1, 4, 3, 3, 3, 2, 2, 5, 4, 3, 5, 4, 2, 3, 3, 3, 2, 1, 1, 4, 4, 4, 1, 1, 1
 |4, 4, 4, 2, 2, 1, 4, 3, 2, 1, 1, 1, 3, 2, 2, 2, 2, 2, 2, 1, 1, 4, 2, 2, 4, 4, 4, 3, 2, 2, 5, 3, 3, 5, 3, 3, 2, 1, 1, 5, 5, 5, 1, 1, 1, 1, 1, 1, 3, 2, 2, 2, 1, 1, 4, 2, 1, 4, 3, 3, 3, 2, 1, 5, 4, 3, 3, 3, 1, 3, 3, 3, 3, 1, 1, 3, 1, 1, 3, 3, 3, 2, 2, 2, 2, 2, 2, 3, 2, 1, 4, 4, 4, 3, 1, 1, 4, 3, 3, 4, 4, 4, 3, 2, 1, 3, 3, 1, 4, 2, 2, 4, 3, 3, 4, 4, 3, 3, 3, 3, 2, 2, 2, 4, 3, 3, 2, 1, 1, 4, 3, 3, 3, 3, 3, 3, 3, 3, 4, 4, 4, 4, 4, 3, 3, 3, 3, 2, 2, 2, 1, 1, 1, 3, 3, 2, 5, 5, 5, 5, 5, 5, 3, 3, 3, 5, 5, 5, 3, 3, 3, 5, 4, 4, 1, 1, 1, 2, 2, 2, 3, 3, 3, 5, 5, 5, 2, 2, 2, 4, 4, 4, 3, 2, 1, 4, 3, 3, 4, 3, 3, 4, 2, 2, 4, 4, 3, 3, 1, 1, 4, 3, 2, 4, 4, 4, 3, 3, 3, 4, 3, 2, 5, 3, 3, 4, 3, 2, 2, 1, 1, 2, 2, 2, 4, 4, 3, 3, 3, 3, 1, 1, 1, 3, 2, 1, 3, 2, 2, 5, 4, 4, 2, 2, 2, 4, 3, 3, 4, 4, 4, 3, 3, 2, 2, 2, 2, 4, 3, 3, 2, 2, 2, 4, 4, 3, 5, 5, 5, 4, 3, 3, 5, 5, 5, 2, 1, 1, 3, 2, 1, 3, 3, 3, 4, 4, 4, 4, 3, 3
 |3, 1, 1, 3, 3, 2, 1, 1, 1, 3, 3, 3, 4, 4, 4, 4, 2, 2, 3, 3, 3, 4, 4, 4, 4, 3, 3, 2, 2, 2, 4, 4, 2, 4, 4, 4, 4, 4, 3, 3, 3, 3, 4, 4, 3, 4, 4, 4, 4, 3, 3, 4, 4, 4, 1, 1, 1, 1, 1, 1, 5, 4, 4, 3, 3, 1, 4, 4, 2, 4, 4, 4, 4, 3, 2, 1, 1, 1, 4, 3, 2, 1, 1, 1, 4, 3, 3, 1, 1, 1, 3, 3, 3, 4, 3, 3, 4, 4, 3, 2, 2, 2, 4, 2, 2, 2, 2, 2, 3, 2, 1, 5, 3, 3, 2, 2, 2, 2, 1, 1, 2, 2, 1, 2, 2, 1, 4, 4, 3, 5, 3, 2, 5, 4, 4, 3, 3, 3, 3, 1, 1, 3, 3, 2, 3, 1, 1, 4, 4, 3, 1, 1, 1, 5, 3, 3, 4, 4, 4, 3, 1, 1, 3, 2, 2, 3, 3, 2, 4, 3, 2, 3, 3, 1, 4, 3, 3, 4, 3, 1, 4, 4, 4, 3, 3, 1, 1, 1, 1, 5, 5, 5, 3, 2, 2, 2, 2, 2, 4, 3, 2, 4, 3, 2, 4, 3, 2, 1, 1, 1, 3, 3, 2, 5, 3, 3, 5, 2, 1, 4, 3, 1, 2, 2, 2, 4, 4, 3, 3, 3, 2, 3, 3, 3, 3, 1, 1, 4, 3, 3, 2, 2, 2, 4, 2, 1, 3, 3, 3, 3, 3, 3, 2, 2, 2, 5, 4, 2, 2, 1, 1, 4, 2, 2, 4, 4, 3, 3, 3, 1, 4, 3, 2, 3, 1, 1, 5, 3, 3, 3, 2, 2, 4, 3, 1, 3, 3, 1, 4, 3, 3, 2, 2, 2, 4, 3, 3, 3, 3, 3
 |25, 25, 23, 17, 15, 13, 25, 18, 12, 14, 9, 7, 30, 27, 24, 19, 13, 12, 29, 18, 17, 12, 10, 8, 22, 16, 10, 28, 18, 15, 22, 14, 12, 9, 8, 7, 17, 11, 8, 11, 10, 4, 20, 12, 4, 19, 16, 13, 25, 24, 23, 24, 22, 18, 28, 27, 27, 10, 7, 6, 16, 15, 15, 16, 9, 1, 17, 12, 12, 6, 5, 3, 23, 22, 14, 14, 7, 2, 18, 18, 16, 4, 2, 1, 29, 27, 23, 2, 1, 1, 12, 10, 5, 18, 18, 18, 13, 11, 7, 27, 20, 18, 6, 4, 4, 29, 21, 20, 15, 10, 7, 15, 12, 9, 20, 18, 12, 16, 15, 8, 9, 4, 3, 23, 16, 10, 24, 20, 18, 19, 15, 11, 20, 10, 10, 18, 16, 12, 15, 8, 5, 11, 10, 8, 22, 18, 7, 13, 8, 6, 21, 20, 13, 17, 8, 7, 30, 19, 9, 10, 8, 7, 26, 22, 18, 10, 6, 3, 5, 4, 4, 25, 15, 8, 14, 11, 10, 20, 19, 18, 22, 19, 12, 9, 7, 4, 20, 16, 12, 28, 26, 25, 28, 20, 10, 25, 18, 14, 17, 14, 13, 17, 10, 3, 18, 13, 8, 12, 11, 9, 27, 22, 17, 27, 26, 24, 14, 11, 10, 16, 15, 15, 26, 26, 26, 20, 10, 3, 27, 19, 12, 16, 15, 12, 24, 23, 23, 26, 25, 25, 9, 9, 9, 30, 25, 22, 24, 17, 15, 22, 12, 7, 9, 7, 3, 22, 19, 18, 20, 19, 17, 19, 18, 17, 20, 18, 15, 30, 28, 26, 21, 20, 18, 15, 14, 13, 21, 18, 16, 21, 19, 14, 18, 11, 11, 15, 10, 8, 28, 18, 17, 25, 21, 18, 8, 6, 6, 23, 23, 22
 |14, 11, 9, 17, 15, 15, 19, 19, 18, 24, 22, 21, 28, 22, 16, 14, 12, 6, 28, 24, 24, 14, 13, 9, 29, 28, 26, 21, 12, 6, 19, 18, 18, 15, 15, 15, 25, 13, 9, 18, 13, 9, 20, 19, 17, 6, 5, 4, 22, 20, 10, 26, 24, 24, 6, 5, 5, 22, 18, 17, 11, 10, 9, 15, 10, 8, 19, 19, 19, 26, 25, 23, 22, 19, 9, 22, 14, 7, 16, 11, 9, 23, 20, 17, 28, 28, 28, 21, 19, 11, 14, 11, 10, 24, 22, 16, 13, 9, 6, 19, 14, 12, 28, 17, 12, 21, 12, 9, 18, 10, 7, 8, 6, 5, 14, 8, 4, 27, 20, 12, 16, 13, 11, 17, 16, 5, 9, 4, 4, 29, 28, 27, 18, 17, 9, 9, 5, 2, 19, 12, 9, 7, 6, 6, 26, 15, 9, 23, 17, 16, 26, 23, 22, 17, 17, 17, 16, 15, 8, 19, 16, 13, 28, 28, 27, 24, 18, 7, 23, 16, 10, 17, 14, 13, 16, 11, 3, 19, 17, 16, 20, 17, 16, 22, 16, 9, 28, 27, 24, 5, 4, 4, 19, 13, 3, 20, 19, 18, 22, 20, 17, 27, 27, 25, 6, 6, 5, 6, 4, 4, 22, 19, 8, 25, 25, 24, 20, 15, 9, 29, 27, 25, 20, 14, 10, 19, 10, 5, 19, 17, 13, 17, 17, 16, 7, 4, 3, 12, 12, 10, 25, 21, 20, 22, 16, 14, 14, 13, 13, 15, 9, 4, 6, 6, 3, 22, 15, 9, 2, 2, 2, 17, 13, 11, 20, 20, 15, 22, 17, 17, 24, 23, 23, 10, 8, 3, 23, 16, 10, 23, 20, 16, 14, 10, 4, 25, 19, 16, 18, 18, 13, 26, 26, 25, 28, 21, 13, 20, 17, 14|];